c Generated map
c Size: 10 * 10, weights in range: 1 to 10, walls: True, with ratio 0.1
c dim 3 of 6
c
p sp 100 147
c graph contains 100 nodes and 147 arcs
c
a 1 11 10
a 11 1 10
a 1 2 1
a 2 1 1
a 2 12 7
a 12 2 7
a 2 3 4
a 3 2 4
a 3 13 5
a 13 3 5
a 5 15 6
a 15 5 6
a 5 6 9
a 6 5 9
a 6 16 10
a 16 6 10
a 6 7 4
a 7 6 4
a 7 17 4
a 17 7 4
a 10 20 2
a 20 10 2
a 11 12 2
a 12 11 2
a 12 22 10
a 22 12 10
a 12 13 10
a 13 12 10
a 13 23 5
a 23 13 5
a 13 14 9
a 14 13 9
a 14 24 4
a 24 14 4
a 14 15 10
a 15 14 10
a 15 25 7
a 25 15 7
a 15 16 2
a 16 15 2
a 16 17 1
a 17 16 1
a 17 27 2
a 27 17 2
a 17 18 3
a 18 17 3
a 18 28 5
a 28 18 5
a 18 19 10
a 19 18 10
a 19 29 3
a 29 19 3
a 19 20 2
a 20 19 2
a 20 30 7
a 30 20 7
a 22 32 9
a 32 22 9
a 22 23 6
a 23 22 6
a 23 33 5
a 33 23 5
a 23 24 6
a 24 23 6
a 24 34 6
a 34 24 6
a 24 25 8
a 25 24 8
a 25 35 2
a 35 25 2
a 27 37 7
a 37 27 7
a 27 28 2
a 28 27 2
a 28 38 2
a 38 28 2
a 28 29 4
a 29 28 4
a 29 39 2
a 39 29 2
a 29 30 8
a 30 29 8
a 30 40 1
a 40 30 1
a 31 41 10
a 41 31 10
a 31 32 6
a 32 31 6
a 32 42 2
a 42 32 2
a 32 33 2
a 33 32 2
a 33 43 8
a 43 33 8
a 33 34 1
a 34 33 1
a 34 35 7
a 35 34 7
a 35 45 8
a 45 35 8
a 35 36 7
a 36 35 7
a 36 46 9
a 46 36 9
a 36 37 7
a 37 36 7
a 37 47 1
a 47 37 1
a 37 38 6
a 38 37 6
a 38 48 2
a 48 38 2
a 38 39 8
a 39 38 8
a 39 40 6
a 40 39 6
a 40 50 9
a 50 40 9
a 41 51 1
a 51 41 1
a 41 42 8
a 42 41 8
a 42 52 9
a 52 42 9
a 42 43 10
a 43 42 10
a 43 53 6
a 53 43 6
a 45 55 6
a 55 45 6
a 45 46 7
a 46 45 7
a 46 56 3
a 56 46 3
a 46 47 3
a 47 46 3
a 47 57 8
a 57 47 8
a 47 48 4
a 48 47 4
a 48 58 5
a 58 48 5
a 50 60 3
a 60 50 3
a 51 61 3
a 61 51 3
a 51 52 1
a 52 51 1
a 52 62 7
a 62 52 7
a 52 53 8
a 53 52 8
a 53 63 7
a 63 53 7
a 53 54 2
a 54 53 2
a 54 64 4
a 64 54 4
a 54 55 4
a 55 54 4
a 55 65 8
a 65 55 8
a 55 56 1
a 56 55 1
a 56 66 7
a 66 56 7
a 56 57 6
a 57 56 6
a 57 67 8
a 67 57 8
a 57 58 7
a 58 57 7
a 58 68 8
a 68 58 8
a 60 70 10
a 70 60 10
a 61 71 5
a 71 61 5
a 61 62 5
a 62 61 5
a 62 72 2
a 72 62 2
a 62 63 5
a 63 62 5
a 63 73 6
a 73 63 6
a 63 64 8
a 64 63 8
a 64 74 9
a 74 64 9
a 64 65 8
a 65 64 8
a 65 75 1
a 75 65 1
a 65 66 6
a 66 65 6
a 66 76 7
a 76 66 7
a 66 67 3
a 67 66 3
a 67 77 7
a 77 67 7
a 67 68 1
a 68 67 1
a 68 78 8
a 78 68 8
a 68 69 8
a 69 68 8
a 69 79 4
a 79 69 4
a 69 70 10
a 70 69 10
a 70 80 5
a 80 70 5
a 71 81 7
a 81 71 7
a 71 72 10
a 72 71 10
a 72 82 7
a 82 72 7
a 72 73 8
a 73 72 8
a 73 83 4
a 83 73 4
a 73 74 4
a 74 73 4
a 74 84 8
a 84 74 8
a 74 75 6
a 75 74 6
a 75 85 4
a 85 75 4
a 75 76 8
a 76 75 8
a 76 77 1
a 77 76 1
a 77 87 4
a 87 77 4
a 77 78 3
a 78 77 3
a 78 88 3
a 88 78 3
a 78 79 3
a 79 78 3
a 79 89 8
a 89 79 8
a 79 80 5
a 80 79 5
a 80 90 10
a 90 80 10
a 81 91 6
a 91 81 6
a 81 82 7
a 82 81 7
a 82 83 3
a 83 82 3
a 83 93 7
a 93 83 7
a 83 84 7
a 84 83 7
a 84 94 3
a 94 84 3
a 84 85 2
a 85 84 2
a 85 95 8
a 95 85 8
a 87 97 4
a 97 87 4
a 87 88 4
a 88 87 4
a 88 98 7
a 98 88 7
a 88 89 4
a 89 88 4
a 89 99 3
a 99 89 3
a 89 90 9
a 90 89 9
a 90 100 5
a 100 90 5
a 93 94 2
a 94 93 2
a 94 95 10
a 95 94 10
a 95 96 1
a 96 95 1
a 96 97 4
a 97 96 4
a 97 98 2
a 98 97 2
a 98 99 8
a 99 98 8
a 99 100 4
a 100 99 4
